NAME : ftv170.tour
COMMENT : Optimum tour for ftv170.tsp (Length 2755)
TYPE : TOUR
DIMENSION : 171
TOUR_SECTION  
169
73
74
78
79
83
80
81
82
1
2
3
4
5
6
134
170
113
133
112
111
110
108
107
106
99
96
95
97
98
166
164
100
101
102
124
163
123
122
121
103
104
105
115
165
128
127
126
130
147
146
145
144
148
149
150
162
153
143
135
132
114
116
117
118
119
120
125
129
131
136
137
138
139
140
141
142
7
8
9
10
11
77
75
76
12
13
14
22
30
23
33
159
37
158
34
32
31
29
28
27
24
25
26
151
161
152
15
16
160
17
18
19
20
21
38
39
40
41
157
35
36
156
42
43
45
46
47
48
49
52
53
54
44
56
55
59
60
62
67
64
66
65
57
58
63
69
70
68
168
71
93
92
155
91
90
89
154
88
86
87
94
167
109
84
85
72
61
51
50
171
-1
EOF
